100
128
59
35
59
50
37
6
21
19
57
34
34
4
62
51
52
62
18
36
58
36
21
61
20
34
22
1
40
16
20
7
19
62
52
24
28
26
3
24
56
20
4
17
10
42
16
62
21
30
60
33
49
42
20
7
23
48
8
19
52
18
48
26
25
1
31
35
63
46
2
50
49
64
42
19
31
37
1
29
21
19
2
61
40
19
36
17
45
5
18
24
47
33
27
37
2
62
4
4
2
4